100
500
394
386
381
381
375
367
363
356
354
352
351
350
344
344
343
342
342
337
336
333
327
322
321
318
315
312
312
311
308
303
298
290
284
282
281
280
278
276
275
271
271
271
256
254
254
245
236
231
228
223
215
212
205
205
201
200
198
191
188
187
187
187
181
180
180
177
171
167
163
161
161
155
151
149
148
146
143
137
137
136
129
118
114
108
106
105
105
103
83
78
75
68
67
67
66
66
64
61
55
54
